500
[100,101,102,103,106,107,108,109,110,111,113,114,115,116,117,118,119,122,123,124,126,127,128,129,130,131,132,133,134,135,136,137,139,140,141,142,143,144,145,146,147,148,149,150,151,152,153,154,155,156,157,158,159,160,161,162,163,164,165,166,167,168,169,170,171,172,173,174,175,176,177,178,179,180,181,183,184,185,186,187,188,189,190,191,193,194,195,196,197,198,199,200,201,203,204,206,207,208,209,210,211,212,213,214,215,216,218,219,220,221,222,223,224,225,226,227,228,229,230,231,232,233,234,235,236,237,238,239,240,241,242,243,244,245,246,247,248,249,251,252,253,254,255,257,258,260,262,263,264,265,266,267,268,269,270,271,272,273,274,275,276,277,278,279,280,281,282,283,284,285,286,287,288,289,291,292,294,295,296,297,298,299,300,301,302,303,304,305,306,307,308,309,311,312,314,315,317,318,319,320,321,322,323,324,325,326,327,328,329,330,331,332,333,334,335,336,337,338,339,340,341,342,343,344,345,346,347,348,350,351,352,353,354,355,356,357,358,360,361,362,363,364,365,366,367,368,369,370,371,372,373,375,376,377,378,379,381,382,383,384,385,386,387,388,389,390,391,392,393,394,395,396,397,399,400]
[1,2,5,6,2,2,1,1,8,2,6,3,5,1,4,2,3,5,2,4,2,4,2,5,2,3,3,3,4,2,2,2,3,4,3,2,2,4,2,1,1,3,2,3,2,1,5,1,3,2,2,1,2,1,4,3,2,5,1,2,1,2,5,1,1,3,3,5,1,3,4,1,3,4,3,2,3,3,2,2,3,5,2,2,1,2,1,3,1,3,2,4,3,2,1,5,3,2,2,4,5,3,5,2,2,3,3,2,2,1,1,2,4,4,4,1,2,3,4,3,5,1,2,5,4,2,4,4,4,5,3,1,1,4,5,3,2,1,4,2,3,4,4,3,2,5,5,1,2,1,3,3,1,4,2,5,1,3,4,1,3,3,5,5,2,1,5,2,2,4,1,2,3,3,3,1,2,2,4,3,1,1,2,3,1,5,4,3,4,1,2,3,2,4,1,1,2,3,3,4,2,2,2,3,5,2,2,2,2,1,10,3,3,2,4,4,2,2,2,2,2,2,2,3,2,2,2,4,2,1,1,4,2,5,3,4,1,4,3,3,4,1,4,2,2,4,1,7,3,2,2,2,1,2,1,1,2,2,4,1,5,1,3,2,4,5,3,3,2,5,1,2,2,3,2]
